# ========================================================== #
# Basic input file for Siesta code: Pariodic Calculation     #
# System: Graphene (2D)                                      #
# ---------------------------------------------------------- #
# SystemName: name of the system                             #
# SystemName graphene (in this case)                         #
# SystemLabel: name used in output files (nickname)          #
# SystemLabel graphene                                       #
# (After a successful run, you should have files like this:  #
# benzene.DM : Density matrix                                #
# benzene.XV: Final positions and velocities                 #
# ...)                                                       #
# ========================================================== #
SystemName    graphene
SystemLabel   graphene
# ============= Atomic informations ===============
NumberOfAtoms		2
NumberOfSpecies		2
%block ChemicalSpeciesLabel
 1    6		C
 2	 27		Co
%endblock ChemicalSpeciesLabel
# ======== lattice, cell and coordinates ==========
# === lattice constant ===
LatticeConstant   2.460 Ang
#====== Lattice Vectors - Simulation box ======
%block LatticeVectors
  2.130    1.230000    0.000000
  2.130   -1.230000    0.000000
  0.000    0.000000   15.000000
%endblock LatticeVectors
# === Coordinates and formats (input and output) ===
AtomicCoordinatesFormat Ang
AtomCoorFormatOut  Ang
%block AtomicCoordinatesAndAtomicSpecies
    0.000   0.000   0.000	1
    1.420   0.000   0.000	1
%endblock AtomicCoordinatesAndAtomicSpecies
# ============== kspace Grid and cutoff =============
%block kgrid_Monkhorst_Pack
 9   0   0     0.0
 0   9   0     0.0
 0   0   1     0.0
%endblock kgrid_Monkhorst_Pack
MeshCutoff        50 Ry
# ============== Block to create supercells  =============
%blockSuperCell
 3   0   0
 0   5   0
# 0   0   9
%endblockSuperCell
#==== hold some atoms in the CG relaxation ====
#%block GeometryConstraints
#position from  1 to  180
#%endblock GeometryConstraints
#============== General variables ===================
#= Basis =
PAO.BasisSize     DZP
PAO.EnergyShift   0.03 eV
#============== MD variables =====================
# Type of Run              MD, FC, CG
# SCF  calculation         MD.NumCGsteps     0
# Structure relaxation     MD.NumCGsteps     600
#=================================================
MD.TypeOfRun      CG
MD.NumCGsteps     0
MD.MaxForceTol    0.01  eV/Ang
#=================== SCF variables ========================
# SCF max number of iterations - single point calculation.
# Mixing - 0.1 means 10 percent of the previous density.
# Pulay - how many densities will be considered.
# Tolerance - criteria to stop
# =========================================================
MaxSCFIterations      300
DM.MixingWeight       0.04
DM.NumberPulay        3
DM.Tolerance           1.d-4
#== Functional ==
XC.functional       LDA
XC.authors          CA
#======== Solution method =====================
# diagon, order-N or transiesta (transiesta)
#----------------------------------------------
# If the system is periodic and has many kpt
# ParallelOverK    .true.
#==============================================
SolutionMethod  diagon
#====================== Electronic temperature (FD or MP) ====================
#=============== determines the occupation of the electronic states ==========
#=============================================================================
OccupationFunction     FD
ElectronicTemperature  50 meV
#=============== Write ================
WriteMullikenPop                1
WriteBands                      .false.
SaveRho                         T
SaveDeltaRho                    T
SaveHS                          .false.
SaveElectrostaticPotential      .false.
SaveTotalPotential              no
WriteCoorXmol                   .true.
WriteMDXmol                     .true.
#WriteMDhistory                  .false.
WriteEigenvalues                yes
#=============== Calculation Reestart ================
#UseSaveData     true
#DM.UseSaveDM    true
#MD.UseSaveXV    true
#MD.UseSaveCG    true
